(set-logic QF_LRA)
(declare-fun X0 () Real )
(declare-fun Y0 () Real )
(declare-fun X1 () Real )
(declare-fun Y1 () Real )
(declare-fun X2 () Real )
(declare-fun Y2 () Real )
(declare-fun X3 () Real )
(declare-fun Y3 () Real )
(declare-fun X4 () Real )
(declare-fun Y4 () Real )
(declare-fun X5 () Real )
(declare-fun Y5 () Real )
(declare-fun X6 () Real )
(declare-fun Y6 () Real )
(declare-fun X7 () Real )
(declare-fun Y7 () Real )
(declare-fun X8 () Real )
(declare-fun Y8 () Real )
(declare-fun X9 () Real )
(declare-fun Y9 () Real )
(declare-fun X10 () Real )
(declare-fun Y10 () Real )
(declare-fun X11 () Real )
(declare-fun Y11 () Real )
(declare-fun X12 () Real )
(declare-fun Y12 () Real )
(declare-fun X13 () Real )
(declare-fun Y13 () Real )
(declare-fun X14 () Real )
(declare-fun Y14 () Real )
(declare-fun X15 () Real )
(declare-fun Y15 () Real )
(declare-fun X16 () Real )
(declare-fun Y16 () Real )
(declare-fun X17 () Real )
(declare-fun Y17 () Real )
(declare-fun Z () Real )
(declare-fun k () Real )
(assert (let
(( $goal (>= Z k) ))
(let
((
$phi ( and 
( or ( <= ( + X0 91 ) X1 )  ( <= ( + X1 13 ) X0 )  ( <= ( + Y0 51 ) Y1 )  ( <= ( + Y1 92 ) Y0 )  )
( or ( <= ( + X0 91 ) X2 )  ( <= ( + X2 51 ) X0 )  ( <= ( + Y0 51 ) Y2 )  ( <= ( + Y2 33 ) Y0 )  )
( or ( <= ( + X0 91 ) X3 )  ( <= ( + X3 12 ) X0 )  ( <= ( + Y0 51 ) Y3 )  ( <= ( + Y3 84 ) Y0 )  )
( or ( <= ( + X0 91 ) X4 )  ( <= ( + X4 30 ) X0 )  ( <= ( + Y0 51 ) Y4 )  ( <= ( + Y4 40 ) Y0 )  )
( or ( <= ( + X0 91 ) X5 )  ( <= ( + X5 30 ) X0 )  ( <= ( + Y0 51 ) Y5 )  ( <= ( + Y5 8 ) Y0 )  )
( or ( <= ( + X0 91 ) X6 )  ( <= ( + X6 8 ) X0 )  ( <= ( + Y0 51 ) Y6 )  ( <= ( + Y6 96 ) Y0 )  )
( or ( <= ( + X0 91 ) X7 )  ( <= ( + X7 6 ) X0 )  ( <= ( + Y0 51 ) Y7 )  ( <= ( + Y7 37 ) Y0 )  )
( or ( <= ( + X0 91 ) X8 )  ( <= ( + X8 32 ) X0 )  ( <= ( + Y0 51 ) Y8 )  ( <= ( + Y8 21 ) Y0 )  )
( or ( <= ( + X0 91 ) X9 )  ( <= ( + X9 80 ) X0 )  ( <= ( + Y0 51 ) Y9 )  ( <= ( + Y9 31 ) Y0 )  )
( or ( <= ( + X0 91 ) X10 )  ( <= ( + X10 78 ) X0 )  ( <= ( + Y0 51 ) Y10 )  ( <= ( + Y10 75 ) Y0 )  )
( or ( <= ( + X0 91 ) X11 )  ( <= ( + X11 92 ) X0 )  ( <= ( + Y0 51 ) Y11 )  ( <= ( + Y11 81 ) Y0 )  )
( or ( <= ( + X0 91 ) X12 )  ( <= ( + X12 62 ) X0 )  ( <= ( + Y0 51 ) Y12 )  ( <= ( + Y12 18 ) Y0 )  )
( or ( <= ( + X0 91 ) X13 )  ( <= ( + X13 62 ) X0 )  ( <= ( + Y0 51 ) Y13 )  ( <= ( + Y13 65 ) Y0 )  )
( or ( <= ( + X0 91 ) X14 )  ( <= ( + X14 37 ) X0 )  ( <= ( + Y0 51 ) Y14 )  ( <= ( + Y14 45 ) Y0 )  )
( or ( <= ( + X0 91 ) X15 )  ( <= ( + X15 51 ) X0 )  ( <= ( + Y0 51 ) Y15 )  ( <= ( + Y15 20 ) Y0 )  )
( or ( <= ( + X0 91 ) X16 )  ( <= ( + X16 99 ) X0 )  ( <= ( + Y0 51 ) Y16 )  ( <= ( + Y16 29 ) Y0 )  )
( or ( <= ( + X0 91 ) X17 )  ( <= ( + X17 25 ) X0 )  ( <= ( + Y0 51 ) Y17 )  ( <= ( + Y17 74 ) Y0 )  )
( or ( <= ( + X1 13 ) X2 )  ( <= ( + X2 51 ) X1 )  ( <= ( + Y1 92 ) Y2 )  ( <= ( + Y2 33 ) Y1 )  )
( or ( <= ( + X1 13 ) X3 )  ( <= ( + X3 12 ) X1 )  ( <= ( + Y1 92 ) Y3 )  ( <= ( + Y3 84 ) Y1 )  )
( or ( <= ( + X1 13 ) X4 )  ( <= ( + X4 30 ) X1 )  ( <= ( + Y1 92 ) Y4 )  ( <= ( + Y4 40 ) Y1 )  )
( or ( <= ( + X1 13 ) X5 )  ( <= ( + X5 30 ) X1 )  ( <= ( + Y1 92 ) Y5 )  ( <= ( + Y5 8 ) Y1 )  )
( or ( <= ( + X1 13 ) X6 )  ( <= ( + X6 8 ) X1 )  ( <= ( + Y1 92 ) Y6 )  ( <= ( + Y6 96 ) Y1 )  )
( or ( <= ( + X1 13 ) X7 )  ( <= ( + X7 6 ) X1 )  ( <= ( + Y1 92 ) Y7 )  ( <= ( + Y7 37 ) Y1 )  )
( or ( <= ( + X1 13 ) X8 )  ( <= ( + X8 32 ) X1 )  ( <= ( + Y1 92 ) Y8 )  ( <= ( + Y8 21 ) Y1 )  )
( or ( <= ( + X1 13 ) X9 )  ( <= ( + X9 80 ) X1 )  ( <= ( + Y1 92 ) Y9 )  ( <= ( + Y9 31 ) Y1 )  )
( or ( <= ( + X1 13 ) X10 )  ( <= ( + X10 78 ) X1 )  ( <= ( + Y1 92 ) Y10 )  ( <= ( + Y10 75 ) Y1 )  )
( or ( <= ( + X1 13 ) X11 )  ( <= ( + X11 92 ) X1 )  ( <= ( + Y1 92 ) Y11 )  ( <= ( + Y11 81 ) Y1 )  )
( or ( <= ( + X1 13 ) X12 )  ( <= ( + X12 62 ) X1 )  ( <= ( + Y1 92 ) Y12 )  ( <= ( + Y12 18 ) Y1 )  )
( or ( <= ( + X1 13 ) X13 )  ( <= ( + X13 62 ) X1 )  ( <= ( + Y1 92 ) Y13 )  ( <= ( + Y13 65 ) Y1 )  )
( or ( <= ( + X1 13 ) X14 )  ( <= ( + X14 37 ) X1 )  ( <= ( + Y1 92 ) Y14 )  ( <= ( + Y14 45 ) Y1 )  )
( or ( <= ( + X1 13 ) X15 )  ( <= ( + X15 51 ) X1 )  ( <= ( + Y1 92 ) Y15 )  ( <= ( + Y15 20 ) Y1 )  )
( or ( <= ( + X1 13 ) X16 )  ( <= ( + X16 99 ) X1 )  ( <= ( + Y1 92 ) Y16 )  ( <= ( + Y16 29 ) Y1 )  )
( or ( <= ( + X1 13 ) X17 )  ( <= ( + X17 25 ) X1 )  ( <= ( + Y1 92 ) Y17 )  ( <= ( + Y17 74 ) Y1 )  )
( or ( <= ( + X2 51 ) X3 )  ( <= ( + X3 12 ) X2 )  ( <= ( + Y2 33 ) Y3 )  ( <= ( + Y3 84 ) Y2 )  )
( or ( <= ( + X2 51 ) X4 )  ( <= ( + X4 30 ) X2 )  ( <= ( + Y2 33 ) Y4 )  ( <= ( + Y4 40 ) Y2 )  )
( or ( <= ( + X2 51 ) X5 )  ( <= ( + X5 30 ) X2 )  ( <= ( + Y2 33 ) Y5 )  ( <= ( + Y5 8 ) Y2 )  )
( or ( <= ( + X2 51 ) X6 )  ( <= ( + X6 8 ) X2 )  ( <= ( + Y2 33 ) Y6 )  ( <= ( + Y6 96 ) Y2 )  )
( or ( <= ( + X2 51 ) X7 )  ( <= ( + X7 6 ) X2 )  ( <= ( + Y2 33 ) Y7 )  ( <= ( + Y7 37 ) Y2 )  )
( or ( <= ( + X2 51 ) X8 )  ( <= ( + X8 32 ) X2 )  ( <= ( + Y2 33 ) Y8 )  ( <= ( + Y8 21 ) Y2 )  )
( or ( <= ( + X2 51 ) X9 )  ( <= ( + X9 80 ) X2 )  ( <= ( + Y2 33 ) Y9 )  ( <= ( + Y9 31 ) Y2 )  )
( or ( <= ( + X2 51 ) X10 )  ( <= ( + X10 78 ) X2 )  ( <= ( + Y2 33 ) Y10 )  ( <= ( + Y10 75 ) Y2 )  )
( or ( <= ( + X2 51 ) X11 )  ( <= ( + X11 92 ) X2 )  ( <= ( + Y2 33 ) Y11 )  ( <= ( + Y11 81 ) Y2 )  )
( or ( <= ( + X2 51 ) X12 )  ( <= ( + X12 62 ) X2 )  ( <= ( + Y2 33 ) Y12 )  ( <= ( + Y12 18 ) Y2 )  )
( or ( <= ( + X2 51 ) X13 )  ( <= ( + X13 62 ) X2 )  ( <= ( + Y2 33 ) Y13 )  ( <= ( + Y13 65 ) Y2 )  )
( or ( <= ( + X2 51 ) X14 )  ( <= ( + X14 37 ) X2 )  ( <= ( + Y2 33 ) Y14 )  ( <= ( + Y14 45 ) Y2 )  )
( or ( <= ( + X2 51 ) X15 )  ( <= ( + X15 51 ) X2 )  ( <= ( + Y2 33 ) Y15 )  ( <= ( + Y15 20 ) Y2 )  )
( or ( <= ( + X2 51 ) X16 )  ( <= ( + X16 99 ) X2 )  ( <= ( + Y2 33 ) Y16 )  ( <= ( + Y16 29 ) Y2 )  )
( or ( <= ( + X2 51 ) X17 )  ( <= ( + X17 25 ) X2 )  ( <= ( + Y2 33 ) Y17 )  ( <= ( + Y17 74 ) Y2 )  )
( or ( <= ( + X3 12 ) X4 )  ( <= ( + X4 30 ) X3 )  ( <= ( + Y3 84 ) Y4 )  ( <= ( + Y4 40 ) Y3 )  )
( or ( <= ( + X3 12 ) X5 )  ( <= ( + X5 30 ) X3 )  ( <= ( + Y3 84 ) Y5 )  ( <= ( + Y5 8 ) Y3 )  )
( or ( <= ( + X3 12 ) X6 )  ( <= ( + X6 8 ) X3 )  ( <= ( + Y3 84 ) Y6 )  ( <= ( + Y6 96 ) Y3 )  )
( or ( <= ( + X3 12 ) X7 )  ( <= ( + X7 6 ) X3 )  ( <= ( + Y3 84 ) Y7 )  ( <= ( + Y7 37 ) Y3 )  )
( or ( <= ( + X3 12 ) X8 )  ( <= ( + X8 32 ) X3 )  ( <= ( + Y3 84 ) Y8 )  ( <= ( + Y8 21 ) Y3 )  )
( or ( <= ( + X3 12 ) X9 )  ( <= ( + X9 80 ) X3 )  ( <= ( + Y3 84 ) Y9 )  ( <= ( + Y9 31 ) Y3 )  )
( or ( <= ( + X3 12 ) X10 )  ( <= ( + X10 78 ) X3 )  ( <= ( + Y3 84 ) Y10 )  ( <= ( + Y10 75 ) Y3 )  )
( or ( <= ( + X3 12 ) X11 )  ( <= ( + X11 92 ) X3 )  ( <= ( + Y3 84 ) Y11 )  ( <= ( + Y11 81 ) Y3 )  )
( or ( <= ( + X3 12 ) X12 )  ( <= ( + X12 62 ) X3 )  ( <= ( + Y3 84 ) Y12 )  ( <= ( + Y12 18 ) Y3 )  )
( or ( <= ( + X3 12 ) X13 )  ( <= ( + X13 62 ) X3 )  ( <= ( + Y3 84 ) Y13 )  ( <= ( + Y13 65 ) Y3 )  )
( or ( <= ( + X3 12 ) X14 )  ( <= ( + X14 37 ) X3 )  ( <= ( + Y3 84 ) Y14 )  ( <= ( + Y14 45 ) Y3 )  )
( or ( <= ( + X3 12 ) X15 )  ( <= ( + X15 51 ) X3 )  ( <= ( + Y3 84 ) Y15 )  ( <= ( + Y15 20 ) Y3 )  )
( or ( <= ( + X3 12 ) X16 )  ( <= ( + X16 99 ) X3 )  ( <= ( + Y3 84 ) Y16 )  ( <= ( + Y16 29 ) Y3 )  )
( or ( <= ( + X3 12 ) X17 )  ( <= ( + X17 25 ) X3 )  ( <= ( + Y3 84 ) Y17 )  ( <= ( + Y17 74 ) Y3 )  )
( or ( <= ( + X4 30 ) X5 )  ( <= ( + X5 30 ) X4 )  ( <= ( + Y4 40 ) Y5 )  ( <= ( + Y5 8 ) Y4 )  )
( or ( <= ( + X4 30 ) X6 )  ( <= ( + X6 8 ) X4 )  ( <= ( + Y4 40 ) Y6 )  ( <= ( + Y6 96 ) Y4 )  )
( or ( <= ( + X4 30 ) X7 )  ( <= ( + X7 6 ) X4 )  ( <= ( + Y4 40 ) Y7 )  ( <= ( + Y7 37 ) Y4 )  )
( or ( <= ( + X4 30 ) X8 )  ( <= ( + X8 32 ) X4 )  ( <= ( + Y4 40 ) Y8 )  ( <= ( + Y8 21 ) Y4 )  )
( or ( <= ( + X4 30 ) X9 )  ( <= ( + X9 80 ) X4 )  ( <= ( + Y4 40 ) Y9 )  ( <= ( + Y9 31 ) Y4 )  )
( or ( <= ( + X4 30 ) X10 )  ( <= ( + X10 78 ) X4 )  ( <= ( + Y4 40 ) Y10 )  ( <= ( + Y10 75 ) Y4 )  )
( or ( <= ( + X4 30 ) X11 )  ( <= ( + X11 92 ) X4 )  ( <= ( + Y4 40 ) Y11 )  ( <= ( + Y11 81 ) Y4 )  )
( or ( <= ( + X4 30 ) X12 )  ( <= ( + X12 62 ) X4 )  ( <= ( + Y4 40 ) Y12 )  ( <= ( + Y12 18 ) Y4 )  )
( or ( <= ( + X4 30 ) X13 )  ( <= ( + X13 62 ) X4 )  ( <= ( + Y4 40 ) Y13 )  ( <= ( + Y13 65 ) Y4 )  )
( or ( <= ( + X4 30 ) X14 )  ( <= ( + X14 37 ) X4 )  ( <= ( + Y4 40 ) Y14 )  ( <= ( + Y14 45 ) Y4 )  )
( or ( <= ( + X4 30 ) X15 )  ( <= ( + X15 51 ) X4 )  ( <= ( + Y4 40 ) Y15 )  ( <= ( + Y15 20 ) Y4 )  )
( or ( <= ( + X4 30 ) X16 )  ( <= ( + X16 99 ) X4 )  ( <= ( + Y4 40 ) Y16 )  ( <= ( + Y16 29 ) Y4 )  )
( or ( <= ( + X4 30 ) X17 )  ( <= ( + X17 25 ) X4 )  ( <= ( + Y4 40 ) Y17 )  ( <= ( + Y17 74 ) Y4 )  )
( or ( <= ( + X5 30 ) X6 )  ( <= ( + X6 8 ) X5 )  ( <= ( + Y5 8 ) Y6 )  ( <= ( + Y6 96 ) Y5 )  )
( or ( <= ( + X5 30 ) X7 )  ( <= ( + X7 6 ) X5 )  ( <= ( + Y5 8 ) Y7 )  ( <= ( + Y7 37 ) Y5 )  )
( or ( <= ( + X5 30 ) X8 )  ( <= ( + X8 32 ) X5 )  ( <= ( + Y5 8 ) Y8 )  ( <= ( + Y8 21 ) Y5 )  )
( or ( <= ( + X5 30 ) X9 )  ( <= ( + X9 80 ) X5 )  ( <= ( + Y5 8 ) Y9 )  ( <= ( + Y9 31 ) Y5 )  )
( or ( <= ( + X5 30 ) X10 )  ( <= ( + X10 78 ) X5 )  ( <= ( + Y5 8 ) Y10 )  ( <= ( + Y10 75 ) Y5 )  )
( or ( <= ( + X5 30 ) X11 )  ( <= ( + X11 92 ) X5 )  ( <= ( + Y5 8 ) Y11 )  ( <= ( + Y11 81 ) Y5 )  )
( or ( <= ( + X5 30 ) X12 )  ( <= ( + X12 62 ) X5 )  ( <= ( + Y5 8 ) Y12 )  ( <= ( + Y12 18 ) Y5 )  )
( or ( <= ( + X5 30 ) X13 )  ( <= ( + X13 62 ) X5 )  ( <= ( + Y5 8 ) Y13 )  ( <= ( + Y13 65 ) Y5 )  )
( or ( <= ( + X5 30 ) X14 )  ( <= ( + X14 37 ) X5 )  ( <= ( + Y5 8 ) Y14 )  ( <= ( + Y14 45 ) Y5 )  )
( or ( <= ( + X5 30 ) X15 )  ( <= ( + X15 51 ) X5 )  ( <= ( + Y5 8 ) Y15 )  ( <= ( + Y15 20 ) Y5 )  )
( or ( <= ( + X5 30 ) X16 )  ( <= ( + X16 99 ) X5 )  ( <= ( + Y5 8 ) Y16 )  ( <= ( + Y16 29 ) Y5 )  )
( or ( <= ( + X5 30 ) X17 )  ( <= ( + X17 25 ) X5 )  ( <= ( + Y5 8 ) Y17 )  ( <= ( + Y17 74 ) Y5 )  )
( or ( <= ( + X6 8 ) X7 )  ( <= ( + X7 6 ) X6 )  ( <= ( + Y6 96 ) Y7 )  ( <= ( + Y7 37 ) Y6 )  )
( or ( <= ( + X6 8 ) X8 )  ( <= ( + X8 32 ) X6 )  ( <= ( + Y6 96 ) Y8 )  ( <= ( + Y8 21 ) Y6 )  )
( or ( <= ( + X6 8 ) X9 )  ( <= ( + X9 80 ) X6 )  ( <= ( + Y6 96 ) Y9 )  ( <= ( + Y9 31 ) Y6 )  )
( or ( <= ( + X6 8 ) X10 )  ( <= ( + X10 78 ) X6 )  ( <= ( + Y6 96 ) Y10 )  ( <= ( + Y10 75 ) Y6 )  )
( or ( <= ( + X6 8 ) X11 )  ( <= ( + X11 92 ) X6 )  ( <= ( + Y6 96 ) Y11 )  ( <= ( + Y11 81 ) Y6 )  )
( or ( <= ( + X6 8 ) X12 )  ( <= ( + X12 62 ) X6 )  ( <= ( + Y6 96 ) Y12 )  ( <= ( + Y12 18 ) Y6 )  )
( or ( <= ( + X6 8 ) X13 )  ( <= ( + X13 62 ) X6 )  ( <= ( + Y6 96 ) Y13 )  ( <= ( + Y13 65 ) Y6 )  )
( or ( <= ( + X6 8 ) X14 )  ( <= ( + X14 37 ) X6 )  ( <= ( + Y6 96 ) Y14 )  ( <= ( + Y14 45 ) Y6 )  )
( or ( <= ( + X6 8 ) X15 )  ( <= ( + X15 51 ) X6 )  ( <= ( + Y6 96 ) Y15 )  ( <= ( + Y15 20 ) Y6 )  )
( or ( <= ( + X6 8 ) X16 )  ( <= ( + X16 99 ) X6 )  ( <= ( + Y6 96 ) Y16 )  ( <= ( + Y16 29 ) Y6 )  )
( or ( <= ( + X6 8 ) X17 )  ( <= ( + X17 25 ) X6 )  ( <= ( + Y6 96 ) Y17 )  ( <= ( + Y17 74 ) Y6 )  )
( or ( <= ( + X7 6 ) X8 )  ( <= ( + X8 32 ) X7 )  ( <= ( + Y7 37 ) Y8 )  ( <= ( + Y8 21 ) Y7 )  )
( or ( <= ( + X7 6 ) X9 )  ( <= ( + X9 80 ) X7 )  ( <= ( + Y7 37 ) Y9 )  ( <= ( + Y9 31 ) Y7 )  )
( or ( <= ( + X7 6 ) X10 )  ( <= ( + X10 78 ) X7 )  ( <= ( + Y7 37 ) Y10 )  ( <= ( + Y10 75 ) Y7 )  )
( or ( <= ( + X7 6 ) X11 )  ( <= ( + X11 92 ) X7 )  ( <= ( + Y7 37 ) Y11 )  ( <= ( + Y11 81 ) Y7 )  )
( or ( <= ( + X7 6 ) X12 )  ( <= ( + X12 62 ) X7 )  ( <= ( + Y7 37 ) Y12 )  ( <= ( + Y12 18 ) Y7 )  )
( or ( <= ( + X7 6 ) X13 )  ( <= ( + X13 62 ) X7 )  ( <= ( + Y7 37 ) Y13 )  ( <= ( + Y13 65 ) Y7 )  )
( or ( <= ( + X7 6 ) X14 )  ( <= ( + X14 37 ) X7 )  ( <= ( + Y7 37 ) Y14 )  ( <= ( + Y14 45 ) Y7 )  )
( or ( <= ( + X7 6 ) X15 )  ( <= ( + X15 51 ) X7 )  ( <= ( + Y7 37 ) Y15 )  ( <= ( + Y15 20 ) Y7 )  )
( or ( <= ( + X7 6 ) X16 )  ( <= ( + X16 99 ) X7 )  ( <= ( + Y7 37 ) Y16 )  ( <= ( + Y16 29 ) Y7 )  )
( or ( <= ( + X7 6 ) X17 )  ( <= ( + X17 25 ) X7 )  ( <= ( + Y7 37 ) Y17 )  ( <= ( + Y17 74 ) Y7 )  )
( or ( <= ( + X8 32 ) X9 )  ( <= ( + X9 80 ) X8 )  ( <= ( + Y8 21 ) Y9 )  ( <= ( + Y9 31 ) Y8 )  )
( or ( <= ( + X8 32 ) X10 )  ( <= ( + X10 78 ) X8 )  ( <= ( + Y8 21 ) Y10 )  ( <= ( + Y10 75 ) Y8 )  )
( or ( <= ( + X8 32 ) X11 )  ( <= ( + X11 92 ) X8 )  ( <= ( + Y8 21 ) Y11 )  ( <= ( + Y11 81 ) Y8 )  )
( or ( <= ( + X8 32 ) X12 )  ( <= ( + X12 62 ) X8 )  ( <= ( + Y8 21 ) Y12 )  ( <= ( + Y12 18 ) Y8 )  )
( or ( <= ( + X8 32 ) X13 )  ( <= ( + X13 62 ) X8 )  ( <= ( + Y8 21 ) Y13 )  ( <= ( + Y13 65 ) Y8 )  )
( or ( <= ( + X8 32 ) X14 )  ( <= ( + X14 37 ) X8 )  ( <= ( + Y8 21 ) Y14 )  ( <= ( + Y14 45 ) Y8 )  )
( or ( <= ( + X8 32 ) X15 )  ( <= ( + X15 51 ) X8 )  ( <= ( + Y8 21 ) Y15 )  ( <= ( + Y15 20 ) Y8 )  )
( or ( <= ( + X8 32 ) X16 )  ( <= ( + X16 99 ) X8 )  ( <= ( + Y8 21 ) Y16 )  ( <= ( + Y16 29 ) Y8 )  )
( or ( <= ( + X8 32 ) X17 )  ( <= ( + X17 25 ) X8 )  ( <= ( + Y8 21 ) Y17 )  ( <= ( + Y17 74 ) Y8 )  )
( or ( <= ( + X9 80 ) X10 )  ( <= ( + X10 78 ) X9 )  ( <= ( + Y9 31 ) Y10 )  ( <= ( + Y10 75 ) Y9 )  )
( or ( <= ( + X9 80 ) X11 )  ( <= ( + X11 92 ) X9 )  ( <= ( + Y9 31 ) Y11 )  ( <= ( + Y11 81 ) Y9 )  )
( or ( <= ( + X9 80 ) X12 )  ( <= ( + X12 62 ) X9 )  ( <= ( + Y9 31 ) Y12 )  ( <= ( + Y12 18 ) Y9 )  )
( or ( <= ( + X9 80 ) X13 )  ( <= ( + X13 62 ) X9 )  ( <= ( + Y9 31 ) Y13 )  ( <= ( + Y13 65 ) Y9 )  )
( or ( <= ( + X9 80 ) X14 )  ( <= ( + X14 37 ) X9 )  ( <= ( + Y9 31 ) Y14 )  ( <= ( + Y14 45 ) Y9 )  )
( or ( <= ( + X9 80 ) X15 )  ( <= ( + X15 51 ) X9 )  ( <= ( + Y9 31 ) Y15 )  ( <= ( + Y15 20 ) Y9 )  )
( or ( <= ( + X9 80 ) X16 )  ( <= ( + X16 99 ) X9 )  ( <= ( + Y9 31 ) Y16 )  ( <= ( + Y16 29 ) Y9 )  )
( or ( <= ( + X9 80 ) X17 )  ( <= ( + X17 25 ) X9 )  ( <= ( + Y9 31 ) Y17 )  ( <= ( + Y17 74 ) Y9 )  )
( or ( <= ( + X10 78 ) X11 )  ( <= ( + X11 92 ) X10 )  ( <= ( + Y10 75 ) Y11 )  ( <= ( + Y11 81 ) Y10 )  )
( or ( <= ( + X10 78 ) X12 )  ( <= ( + X12 62 ) X10 )  ( <= ( + Y10 75 ) Y12 )  ( <= ( + Y12 18 ) Y10 )  )
( or ( <= ( + X10 78 ) X13 )  ( <= ( + X13 62 ) X10 )  ( <= ( + Y10 75 ) Y13 )  ( <= ( + Y13 65 ) Y10 )  )
( or ( <= ( + X10 78 ) X14 )  ( <= ( + X14 37 ) X10 )  ( <= ( + Y10 75 ) Y14 )  ( <= ( + Y14 45 ) Y10 )  )
( or ( <= ( + X10 78 ) X15 )  ( <= ( + X15 51 ) X10 )  ( <= ( + Y10 75 ) Y15 )  ( <= ( + Y15 20 ) Y10 )  )
( or ( <= ( + X10 78 ) X16 )  ( <= ( + X16 99 ) X10 )  ( <= ( + Y10 75 ) Y16 )  ( <= ( + Y16 29 ) Y10 )  )
( or ( <= ( + X10 78 ) X17 )  ( <= ( + X17 25 ) X10 )  ( <= ( + Y10 75 ) Y17 )  ( <= ( + Y17 74 ) Y10 )  )
( or ( <= ( + X11 92 ) X12 )  ( <= ( + X12 62 ) X11 )  ( <= ( + Y11 81 ) Y12 )  ( <= ( + Y12 18 ) Y11 )  )
( or ( <= ( + X11 92 ) X13 )  ( <= ( + X13 62 ) X11 )  ( <= ( + Y11 81 ) Y13 )  ( <= ( + Y13 65 ) Y11 )  )
( or ( <= ( + X11 92 ) X14 )  ( <= ( + X14 37 ) X11 )  ( <= ( + Y11 81 ) Y14 )  ( <= ( + Y14 45 ) Y11 )  )
( or ( <= ( + X11 92 ) X15 )  ( <= ( + X15 51 ) X11 )  ( <= ( + Y11 81 ) Y15 )  ( <= ( + Y15 20 ) Y11 )  )
( or ( <= ( + X11 92 ) X16 )  ( <= ( + X16 99 ) X11 )  ( <= ( + Y11 81 ) Y16 )  ( <= ( + Y16 29 ) Y11 )  )
( or ( <= ( + X11 92 ) X17 )  ( <= ( + X17 25 ) X11 )  ( <= ( + Y11 81 ) Y17 )  ( <= ( + Y17 74 ) Y11 )  )
( or ( <= ( + X12 62 ) X13 )  ( <= ( + X13 62 ) X12 )  ( <= ( + Y12 18 ) Y13 )  ( <= ( + Y13 65 ) Y12 )  )
( or ( <= ( + X12 62 ) X14 )  ( <= ( + X14 37 ) X12 )  ( <= ( + Y12 18 ) Y14 )  ( <= ( + Y14 45 ) Y12 )  )
( or ( <= ( + X12 62 ) X15 )  ( <= ( + X15 51 ) X12 )  ( <= ( + Y12 18 ) Y15 )  ( <= ( + Y15 20 ) Y12 )  )
( or ( <= ( + X12 62 ) X16 )  ( <= ( + X16 99 ) X12 )  ( <= ( + Y12 18 ) Y16 )  ( <= ( + Y16 29 ) Y12 )  )
( or ( <= ( + X12 62 ) X17 )  ( <= ( + X17 25 ) X12 )  ( <= ( + Y12 18 ) Y17 )  ( <= ( + Y17 74 ) Y12 )  )
( or ( <= ( + X13 62 ) X14 )  ( <= ( + X14 37 ) X13 )  ( <= ( + Y13 65 ) Y14 )  ( <= ( + Y14 45 ) Y13 )  )
( or ( <= ( + X13 62 ) X15 )  ( <= ( + X15 51 ) X13 )  ( <= ( + Y13 65 ) Y15 )  ( <= ( + Y15 20 ) Y13 )  )
( or ( <= ( + X13 62 ) X16 )  ( <= ( + X16 99 ) X13 )  ( <= ( + Y13 65 ) Y16 )  ( <= ( + Y16 29 ) Y13 )  )
( or ( <= ( + X13 62 ) X17 )  ( <= ( + X17 25 ) X13 )  ( <= ( + Y13 65 ) Y17 )  ( <= ( + Y17 74 ) Y13 )  )
( or ( <= ( + X14 37 ) X15 )  ( <= ( + X15 51 ) X14 )  ( <= ( + Y14 45 ) Y15 )  ( <= ( + Y15 20 ) Y14 )  )
( or ( <= ( + X14 37 ) X16 )  ( <= ( + X16 99 ) X14 )  ( <= ( + Y14 45 ) Y16 )  ( <= ( + Y16 29 ) Y14 )  )
( or ( <= ( + X14 37 ) X17 )  ( <= ( + X17 25 ) X14 )  ( <= ( + Y14 45 ) Y17 )  ( <= ( + Y17 74 ) Y14 )  )
( or ( <= ( + X15 51 ) X16 )  ( <= ( + X16 99 ) X15 )  ( <= ( + Y15 20 ) Y16 )  ( <= ( + Y16 29 ) Y15 )  )
( or ( <= ( + X15 51 ) X17 )  ( <= ( + X17 25 ) X15 )  ( <= ( + Y15 20 ) Y17 )  ( <= ( + Y17 74 ) Y15 )  )
( or ( <= ( + X16 99 ) X17 )  ( <= ( + X17 25 ) X16 )  ( <= ( + Y16 29 ) Y17 )  ( <= ( + Y17 74 ) Y16 )  )
( >= X0 0)
( <= ( + X0 91) Z)
( >= Y0 0)
( <= ( + Y0 51 ) 100)
( >= X1 0)
( <= ( + X1 13) Z)
( >= Y1 0)
( <= ( + Y1 92 ) 100)
( >= X2 0)
( <= ( + X2 51) Z)
( >= Y2 0)
( <= ( + Y2 33 ) 100)
( >= X3 0)
( <= ( + X3 12) Z)
( >= Y3 0)
( <= ( + Y3 84 ) 100)
( >= X4 0)
( <= ( + X4 30) Z)
( >= Y4 0)
( <= ( + Y4 40 ) 100)
( >= X5 0)
( <= ( + X5 30) Z)
( >= Y5 0)
( <= ( + Y5 8 ) 100)
( >= X6 0)
( <= ( + X6 8) Z)
( >= Y6 0)
( <= ( + Y6 96 ) 100)
( >= X7 0)
( <= ( + X7 6) Z)
( >= Y7 0)
( <= ( + Y7 37 ) 100)
( >= X8 0)
( <= ( + X8 32) Z)
( >= Y8 0)
( <= ( + Y8 21 ) 100)
( >= X9 0)
( <= ( + X9 80) Z)
( >= Y9 0)
( <= ( + Y9 31 ) 100)
( >= X10 0)
( <= ( + X10 78) Z)
( >= Y10 0)
( <= ( + Y10 75 ) 100)
( >= X11 0)
( <= ( + X11 92) Z)
( >= Y11 0)
( <= ( + Y11 81 ) 100)
( >= X12 0)
( <= ( + X12 62) Z)
( >= Y12 0)
( <= ( + Y12 18 ) 100)
( >= X13 0)
( <= ( + X13 62) Z)
( >= Y13 0)
( <= ( + Y13 65 ) 100)
( >= X14 0)
( <= ( + X14 37) Z)
( >= Y14 0)
( <= ( + Y14 45 ) 100)
( >= X15 0)
( <= ( + X15 51) Z)
( >= Y15 0)
( <= ( + Y15 20 ) 100)
( >= X16 0)
( <= ( + X16 99) Z)
( >= Y16 0)
( <= ( + Y16 29 ) 100)
( >= X17 0)
( <= ( + X17 25) Z)
( >= Y17 0)
( <= ( + Y17 74 ) 100)
) )
)(=> $phi $goal))))